NAME : Gaspelle21-5-f.26723.tour
COMMENT : Length = 26723
COMMENT : Found by LKH-3 [Keld Helsgaun] Tue Dec 17 14:06:59 2024
TYPE : TOUR
DIMENSION : 31
TOUR_SECTION
1
27
2
15
14
12
10
7
6
11
8
9
16
13
28
3
18
29
4
24
26
22
25
23
20
17
19
21
30
5
31
-1
EOF
